
--- Job RookTour.gms Start 09/29/21 01:26:14 36.1.0 r2c0a44a WEX-WEI x86 64bit/MS Windows
--- Applying:
    C:\GAMS\36\gmsprmNT.txt
    C:\Users\Erwin\Documents\GAMS\gamsconfig.yaml
--- GAMS Parameters defined
    Input D:\projects\OptimizationModels\RookTour\RookTour.gms
    PageWidth 120
    PageSize 0
    PageContr 3
    Action CE
    ScrDir D:\projects\OptimizationModels\RookTour\225a\
    SysDir C:\GAMS\36\
    WorkDir D:\projects\OptimizationModels\RookTour\
    LogOption 3
    DFormat 0
    TFormat 0
    ErrorLog 99
    IDE 1
Licensee: Eval License                                   S201210/0001CO-GEN
          Amsterdam Optimization Modeling Group,                     DCE378
          C:\Users\Erwin\Documents\GAMS\gamslice.txt
          Evaluation license: Not for commercial or production use
Processor information: 1 socket(s), 4 core(s), and 8 thread(s) available
GAMS 36.1.0   Copyright (C) 1987-2021 GAMS Development. All rights reserved
--- Starting compilation
--- RookTour.gms(106) 3 Mb
--- Starting execution: elapsed 0:00:00.067
--- RookTour.gms(89) 4 Mb
--- Generating MIP model m
--- RookTour.gms(90) 7 Mb
--- LOOPS sol = solution1
---   4,243 rows  4,097 columns  26,949 non-zeroes
---   4,096 discrete-columns
--- Executing CPLEX (Solvelink=2): elapsed 0:00:00.226

IBM ILOG CPLEX   36.1.0 r2c0a44a Released Aug 02, 2021 WEI x86 64bit/MS Window

--- GAMS/Cplex Link licensed for continuous and discrete problems.
--- GMO setup time: 0.00s
--- Space for names approximately 0.17 Mb
--- Use option 'names no' to turn use of names off
--- GMO memory 2.45 Mb (peak 2.49 Mb)
--- Dictionary memory 0.00 Mb
--- Cplex 20.1.0.1 link memory 0.13 Mb (peak 0.69 Mb)
--- Starting Cplex

Version identifier: 20.1.0.1 | 2021-04-07 | 3a818710c
CPXPARAM_Advance                                 0
CPXPARAM_Threads                                 8
CPXPARAM_Parallel                                1
CPXPARAM_MIP_Display                             4
CPXPARAM_MIP_Tolerances_AbsMIPGap                0
Generic callback                                 0x50
Tried aggregator 1 time.
MIP Presolve eliminated 1093 rows and 1013 columns.
MIP Presolve modified 387 coefficients.
Reduced MIP has 3149 rows, 3084 columns, and 17852 nonzeros.
Reduced MIP has 3084 binaries, 0 generals, 0 SOSs, and 0 indicators.
Presolve time = 0.08 sec. (19.38 ticks)
Probing fixed 1786 vars, tightened 0 bounds.
Probing changed sense of 4 constraints.
Probing time = 0.16 sec. (18.10 ticks)
Cover probing fixed 0 vars, tightened 1 bounds.
Tried aggregator 2 times.
MIP Presolve eliminated 1741 rows and 1786 columns.
MIP Presolve modified 2 coefficients.
Aggregator did 1 substitutions.
Reduced MIP has 1407 rows, 1297 columns, and 7645 nonzeros.
Reduced MIP has 1297 binaries, 0 generals, 0 SOSs, and 0 indicators.
Presolve time = 0.03 sec. (6.60 ticks)
Probing fixed 9 vars, tightened 0 bounds.
Probing changed sense of 2 constraints.
Probing time = 0.23 sec. (28.38 ticks)
Tried aggregator 2 times.
Detecting symmetries...
MIP Presolve eliminated 10 rows and 10 columns.
MIP Presolve modified 1 coefficients.
Aggregator did 1 substitutions.
Reduced MIP has 1396 rows, 1286 columns, and 7584 nonzeros.
Reduced MIP has 1286 binaries, 0 generals, 0 SOSs, and 0 indicators.
Presolve time = 0.08 sec. (10.27 ticks)
Probing time = 0.14 sec. (10.23 ticks)
Clique table members: 8717.
MIP emphasis: balance optimality and feasibility.
MIP search method: dynamic search.
Parallel mode: deterministic, using up to 8 threads.
Parallel mode: deterministic, using up to 2 threads for parallel tasks at root LP.
Parallel mode: deterministic, using up to 6 threads for concurrent optimization:
 * Starting dual Simplex on 1 thread...
 * Starting Barrier on 4 threads...
 * Starting primal Simplex on 1 thread...
Tried aggregator 1 time.
No LP presolve or aggregator reductions.
Presolve time = 0.02 sec. (0.73 ticks)

Iteration log . . .
Iteration:     1   Dual objective     =             0.000000
Iteration:    96   Dual objective     =             0.000000
Perturbation started.
Iteration:   101   Dual objective     =             0.000000
Iteration:   220   Dual objective     =             0.000007
Iteration:   312   Dual objective     =             0.000009
Iteration:   377   Dual objective     =             0.000010
Iteration:   439   Dual objective     =             0.000011
Iteration:   501   Dual objective     =             0.000012
Iteration:   563   Dual objective     =             0.000013
Iteration:   625   Dual objective     =             0.000014
Iteration:   687   Dual objective     =             0.000015
Iteration:   749   Dual objective     =             0.000016
Iteration:   811   Dual objective     =             0.000017
Iteration:   873   Dual objective     =             0.000018
Iteration:   935   Dual objective     =             0.000019
Iteration:   997   Dual objective     =             0.000020
Iteration:  1059   Dual objective     =             0.000020
Iteration:  1121   Dual objective     =             0.000021
Iteration:  1183   Dual objective     =             0.000021
Iteration:  1245   Dual objective     =             0.000022
Iteration:  1307   Dual objective     =             0.000022
Iteration:  1369   Dual objective     =             0.000023
Iteration:  1431   Dual objective     =             0.000023
Iteration:  1493   Dual objective     =             0.000023
Iteration:  1555   Dual objective     =             0.000023
Iteration:  1617   Dual objective     =             0.000023
Removing perturbation.

Barrier solved model.

Root relaxation solution time = 1.44 sec. (151.20 ticks)

        Nodes                                         Cuts/
   Node  Left     Objective  IInf  Best Integer    Best Bound    ItCnt     Gap

      0     0        0.0000   509                      0.0000        9         
      0     0        0.0000   293                 Impl Bds: 8      166         
      0     0        0.0000   408                    Cuts: 35      722         
      0     0        0.0000   398                 Impl Bds: 8     1598         
*     0+    0                            0.0000        0.0000             0.00%
Found incumbent of value 0.000000 after 6.33 sec. (1716.34 ticks)
      0     0        cutoff              0.0000        0.0000     1723    0.00%
Elapsed time = 6.33 sec. (1716.39 ticks, tree = 0.01 MB, solutions = 1)

Implied bound cuts applied:  28
Zero-half cuts applied:  3
Gomory fractional cuts applied:  1

Root node processing (before b&c):
  Real time             =    6.34 sec. (1716.50 ticks)
Parallel b&c, 8 threads:
  Real time             =    0.00 sec. (0.00 ticks)
  Sync time (average)   =    0.00 sec.
  Wait time (average)   =    0.00 sec.
                          ------------
Total (root+branch&cut) =    6.34 sec. (1716.50 ticks)

--- MIP status (101): integer optimal solution.
--- Cplex Time: 6.36sec (det. 1716.52 ticks)

--- Fixing integer variables and solving final LP...

Version identifier: 20.1.0.1 | 2021-04-07 | 3a818710c
CPXPARAM_Advance                                 2
CPXPARAM_Threads                                 8
CPXPARAM_Parallel                                1
CPXPARAM_MIP_Display                             4
CPXPARAM_MIP_Tolerances_AbsMIPGap                0
Parallel mode: deterministic, using up to 8 threads for concurrent optimization:
 * Starting dual Simplex on 1 thread...
 * Starting Barrier on 6 threads...
 * Starting primal Simplex on 1 thread...
Tried aggregator 1 time.
LP Presolve eliminated 4242 rows and 4097 columns.
All rows and columns eliminated.
Presolve time = 0.00 sec. (2.48 ticks)

Dual simplex solved model.


--- Fixed MIP status (1): optimal.
--- Cplex Time: 0.09sec (det. 4.21 ticks)


Proven optimal solution
MIP Solution:            0.000000    (1723 iterations, 0 nodes)
Final Solve:             0.000000    (0 iterations)

Best possible:           0.000000
Absolute gap:            0.000000
Relative gap:            0.000000

--- Reading solution for model m
--- Executing after solve: elapsed 0:00:07.084
--- RookTour.gms(89) 7 Mb
--- Generating MIP model m
--- RookTour.gms(90) 7 Mb
--- LOOPS sol = solution2
---   4,244 rows  4,097 columns  27,013 non-zeroes
---   4,096 discrete-columns
--- Executing CPLEX (Solvelink=2): elapsed 0:00:07.123

IBM ILOG CPLEX   36.1.0 r2c0a44a Released Aug 02, 2021 WEI x86 64bit/MS Window

--- GAMS/Cplex Link licensed for continuous and discrete problems.
--- GMO setup time: 0.00s
--- Space for names approximately 0.17 Mb
--- Use option 'names no' to turn use of names off
--- GMO memory 2.45 Mb (peak 2.49 Mb)
--- Dictionary memory 0.00 Mb
--- Cplex 20.1.0.1 link memory 0.13 Mb (peak 0.69 Mb)
--- Starting Cplex

Version identifier: 20.1.0.1 | 2021-04-07 | 3a818710c
CPXPARAM_Advance                                 0
CPXPARAM_Threads                                 8
CPXPARAM_Parallel                                1
CPXPARAM_MIP_Display                             4
CPXPARAM_MIP_Tolerances_AbsMIPGap                0
Generic callback                                 0x50
Tried aggregator 1 time.
MIP Presolve eliminated 1093 rows and 1013 columns.
MIP Presolve modified 387 coefficients.
Reduced MIP has 3150 rows, 3084 columns, and 17916 nonzeros.
Reduced MIP has 3084 binaries, 0 generals, 0 SOSs, and 0 indicators.
Presolve time = 0.09 sec. (19.40 ticks)
Probing fixed 1788 vars, tightened 0 bounds.
Probing changed sense of 4 constraints.
Probing time = 0.17 sec. (18.28 ticks)
Cover probing fixed 0 vars, tightened 1 bounds.
Tried aggregator 2 times.
MIP Presolve eliminated 1743 rows and 1788 columns.
MIP Presolve modified 7 coefficients.
Aggregator did 1 substitutions.
Reduced MIP has 1406 rows, 1295 columns, and 7695 nonzeros.
Reduced MIP has 1295 binaries, 0 generals, 0 SOSs, and 0 indicators.
Presolve time = 0.02 sec. (7.95 ticks)
Probing fixed 6 vars, tightened 0 bounds.
Probing time = 0.13 sec. (24.93 ticks)
Tried aggregator 1 time.
Detecting symmetries...
MIP Presolve eliminated 8 rows and 8 columns.
MIP Presolve modified 1 coefficients.
Reduced MIP has 1398 rows, 1287 columns, and 7649 nonzeros.
Reduced MIP has 1287 binaries, 0 generals, 0 SOSs, and 0 indicators.
Presolve time = 0.05 sec. (7.56 ticks)
Probing time = 0.06 sec. (10.32 ticks)
Clique table members: 8748.
MIP emphasis: balance optimality and feasibility.
MIP search method: dynamic search.
Parallel mode: deterministic, using up to 8 threads.
Parallel mode: deterministic, using up to 2 threads for parallel tasks at root LP.
Parallel mode: deterministic, using up to 6 threads for concurrent optimization:
 * Starting dual Simplex on 1 thread...
 * Starting Barrier on 4 threads...
 * Starting primal Simplex on 1 thread...
Tried aggregator 1 time.
No LP presolve or aggregator reductions.
Presolve time = 0.00 sec. (0.74 ticks)

Iteration log . . .
Iteration:     1   Dual objective     =             0.000000
Iteration:    99   Dual objective     =             0.000000
Perturbation started.
Iteration:   101   Dual objective     =             0.000000
Iteration:   215   Dual objective     =             0.000006
Iteration:   300   Dual objective     =             0.000009
Iteration:   364   Dual objective     =             0.000010
Iteration:   426   Dual objective     =             0.000011
Iteration:   488   Dual objective     =             0.000012
Iteration:   550   Dual objective     =             0.000013
Iteration:   612   Dual objective     =             0.000014
Iteration:   674   Dual objective     =             0.000014
Iteration:   736   Dual objective     =             0.000015
Iteration:   798   Dual objective     =             0.000016
Iteration:   860   Dual objective     =             0.000017
Iteration:   922   Dual objective     =             0.000017
Iteration:   984   Dual objective     =             0.000018
Iteration:  1046   Dual objective     =             0.000019
Iteration:  1108   Dual objective     =             0.000019
Iteration:  1170   Dual objective     =             0.000020
Iteration:  1232   Dual objective     =             0.000020
Iteration:  1294   Dual objective     =             0.000020
Iteration:  1356   Dual objective     =             0.000020
Iteration:  1418   Dual objective     =             0.000020
Iteration:  1480   Dual objective     =             0.000021
Iteration:  1542   Dual objective     =             0.000021
Removing perturbation.

Dual simplex solved model.

Root relaxation solution time = 1.20 sec. (142.15 ticks)

        Nodes                                         Cuts/
   Node  Left     Objective  IInf  Best Integer    Best Bound    ItCnt     Gap

      0     0        0.0000   458                      0.0000     1598         
      0     0        0.0000   347                     Cuts: 9     1963         
      0     0        0.0000   445                    Cuts: 50     2914         
      0     0        0.0000   397                 Impl Bds: 2     3157         
      0     0        0.0000   433                    Cuts: 59     4721         
      0     0        cutoff                                       4721         
Elapsed time = 10.25 sec. (4161.14 ticks, tree = 0.01 MB, solutions = 0)

Implied bound cuts applied:  21
Zero-half cuts applied:  7

Root node processing (before b&c):
  Real time             =   10.25 sec. (4161.15 ticks)
Parallel b&c, 8 threads:
  Real time             =    0.00 sec. (0.00 ticks)
  Sync time (average)   =    0.00 sec.
  Wait time (average)   =    0.00 sec.
                          ------------
Total (root+branch&cut) =   10.25 sec. (4161.15 ticks)

--- MIP status (103): integer infeasible.
--- Cplex Time: 10.28sec (det. 4161.16 ticks)

CPLEX Error  1217: No solution exists.
--- Problem is integer infeasible
--- Reading solution for model m
--- Executing after solve: elapsed 0:00:17.534
--- RookTour.gms(106) 7 Mb
*** Status: Normal completion
--- Job RookTour.gms Stop 09/29/21 01:26:31 elapsed 0:00:17.539
